n = 8;
m = 20;
a = [| 8, 10, 14, 19, 11, 13, 5, 19
     | 4, 10, 1, 6, 0, 3, 8, 4
     | 8, 10, 1, 13, 0, 10, 10, 18
     | 0, 0, 20, 0, 17, 16, 0, 7
     | 13, 8, 11, 14, 20, 10, 0, 2
     | 0, 13, 14, 17, 6, 6, 9, 12
     | 15, 18, 2, 14, 9, 5, 9, 11
     | 5, 0, 11, 4, 3, 7, 0, 5|];
s = [ 5, 12, 12, 14, 20, 6, 8, 15, 8, 23, 20, 3, 21, 14, 7, 7, 8, 11, 12, 11];
